35 21 29 70 33 75 6 31 62 8 10 69 68 60 44 2 72 4 11 23 20 5 73 9 32 56 15 65 49 38 19 14 17 61 51 59 52 76 37 53 57 41 22 34 64 63 58 74 36 45 67 26 50 7 13 40 1 18 3 42 12 28 0 71 30 47 16 55 24 39 54 25 46 27 43 66 48 